4123 2153 4 6 14 16 17 19 21 23 24 26 30 33 36 37 50 53 54 56 64 66 67 70 71 72 75 83 84 89 90 92 94 103 105 109 111 114 118 120 124 128 129 130 133 139 142 145 146 148 149 159 161 163 168 170 171 173 174 176 178 179 181 182 184 188 202 206 207 209 210 212 214 215 216 217 218 225 226 229 230 231 233 239 242 243 244 249 251 252 256 260 261 262 263 265 267 270 271 272 273 274 276 283 284 287 292 295 298 302 303 304 306 310 312 314 317 320 324 325 326 327 331 332 333 337 339 341 342 343 345 347 348 349 351 355 360 365 368 370 376 378 380 382 386 387 388 389 396 397 398 400 403 406 408 409 411 413 415 419 422 424 425 426 427 428 429 433 434 437 439 443 447 448 449 450 451 452 453 454 456 461 462 466 468 471 472 476 478 481 485 486 489 491 492 493 496 497 498 